\ Model (null)_copy_copy
\ LP format - for model browsing. Use MPS format to capture full model detail.
Minimize
  - C0 + 0.0278706286010682 C1 + 0 C2 + 14.26764285190079 C3
Subject To
Bounds
 C0 free
 C1 free
 C2 free
End
